<?xml version = "1.0" encoding="UTF-8" standalone="yes"?>
<CPLEXSolution version="1.2">
 <header
   problemName="IloCplex"
   solutionName="p0"
   solutionIndex="-1"
   objectiveValue="618464"
   solutionTypeValue="3"
   solutionTypeString="primal"
   solutionStatusValue="127"
   solutionStatusString="integer feasible solution"
   solutionMethodString="mip"
   primalFeasible="0"
   dualFeasible="0"
   writeLevel="3"/>
 <quality
   epInt="1.0000000000000001e-05"
   epRHS="9.9999999999999995e-07"
   maxIntInfeas="0"
   maxPrimalInfeas="0"
   maxX="1"
   maxSlack="1"/>
 <variables>
  <variable name="w0_1" index="1" value="1"/>
  <variable name="w0_3" index="3" value="1"/>
  <variable name="w0_5" index="5" value="1"/>
  <variable name="w0_6" index="6" value="1"/>
  <variable name="w0_8" index="8" value="1"/>
  <variable name="w0_9" index="9" value="1"/>
  <variable name="w1_1" index="15" value="1"/>
  <variable name="w1_3" index="17" value="1"/>
  <variable name="w1_5" index="19" value="1"/>
  <variable name="w1_6" index="20" value="1"/>
  <variable name="w1_8" index="22" value="1"/>
  <variable name="w1_9" index="23" value="1"/>
  <variable name="w2_1" index="29" value="1"/>
  <variable name="w2_3" index="31" value="1"/>
  <variable name="w2_5" index="33" value="1"/>
  <variable name="w2_6" index="34" value="1"/>
  <variable name="w2_8" index="36" value="1"/>
  <variable name="w2_9" index="37" value="1"/>
  <variable name="w9_1" index="127" value="1"/>
  <variable name="w9_3" index="129" value="1"/>
  <variable name="w9_5" index="131" value="1"/>
  <variable name="w9_6" index="132" value="1"/>
  <variable name="w9_8" index="134" value="1"/>
  <variable name="w9_9" index="135" value="1"/>
  <variable name="k0" index="196" value="1"/>
  <variable name="k1" index="197" value="1"/>
  <variable name="k2" index="198" value="1"/>
  <variable name="k9" index="205" value="1"/>
  <variable name="u1" index="211" value="1"/>
  <variable name="u3" index="213" value="1"/>
  <variable name="u5" index="215" value="1"/>
  <variable name="u6" index="216" value="1"/>
  <variable name="u8" index="218" value="1"/>
  <variable name="u9" index="219" value="1"/>
  <variable name="x0_9" index="233" value="1"/>
  <variable name="x1_33" index="357" value="1"/>
  <variable name="x2_45" index="469" value="1"/>
  <variable name="x3_58" index="582" value="1"/>
  <variable name="x4_85" index="709" value="1"/>
  <variable name="x5_25" index="749" value="1"/>
  <variable name="x6_93" index="917" value="1"/>
  <variable name="x7_49" index="973" value="1"/>
  <variable name="x8_22" index="1046" value="1"/>
  <variable name="x9_0" index="1124" value="1"/>
  <variable name="x10_24" index="1248" value="1"/>
  <variable name="x11_77" index="1401" value="1"/>
  <variable name="x12_59" index="1483" value="1"/>
  <variable name="x13_75" index="1599" value="1"/>
  <variable name="x14_32" index="1656" value="1"/>
  <variable name="x15_21" index="1745" value="1"/>
  <variable name="x16_65" index="1889" value="1"/>
  <variable name="x17_81" index="2005" value="1"/>
  <variable name="x18_48" index="2072" value="1"/>
  <variable name="x19_82" index="2206" value="1"/>
  <variable name="x20_83" index="2307" value="1"/>
  <variable name="x21_15" index="2339" value="1"/>
  <variable name="x22_8" index="2432" value="1"/>
  <variable name="x23_38" index="2562" value="1"/>
  <variable name="x24_10" index="2634" value="1"/>
  <variable name="x25_5" index="2729" value="1"/>
  <variable name="x26_31" index="2855" value="1"/>
  <variable name="x27_40" index="2964" value="1"/>
  <variable name="x28_84" index="3108" value="1"/>
  <variable name="x29_88" index="3212" value="1"/>
  <variable name="x30_69" index="3293" value="1"/>
  <variable name="x31_26" index="3350" value="1"/>
  <variable name="x32_14" index="3438" value="1"/>
  <variable name="x33_1" index="3525" value="1"/>
  <variable name="x34_98" index="3722" value="1"/>
  <variable name="x35_99" index="3823" value="1"/>
  <variable name="x36_55" index="3879" value="1"/>
  <variable name="x37_52" index="3976" value="1"/>
  <variable name="x38_23" index="4047" value="1"/>
  <variable name="x39_62" index="4186" value="1"/>
  <variable name="x40_27" index="4251" value="1"/>
  <variable name="x41_94" index="4418" value="1"/>
  <variable name="x42_87" index="4511" value="1"/>
  <variable name="x43_80" index="4604" value="1"/>
  <variable name="x44_89" index="4713" value="1"/>
  <variable name="x45_2" index="4726" value="1"/>
  <variable name="x46_57" index="4881" value="1"/>
  <variable name="x47_78" index="5002" value="1"/>
  <variable name="x48_18" index="5042" value="1"/>
  <variable name="x49_7" index="5131" value="1"/>
  <variable name="x50_53" index="5277" value="1"/>
  <variable name="x51_60" index="5384" value="1"/>
  <variable name="x52_37" index="5461" value="1"/>
  <variable name="x53_50" index="5574" value="1"/>
  <variable name="x54_90" index="5714" value="1"/>
  <variable name="x55_36" index="5760" value="1"/>
  <variable name="x56_95" index="5919" value="1"/>
  <variable name="x57_46" index="5970" value="1"/>
  <variable name="x58_3" index="6027" value="1"/>
  <variable name="x59_12" index="6136" value="1"/>
  <variable name="x60_51" index="6275" value="1"/>
  <variable name="x61_72" index="6396" value="1"/>
  <variable name="x62_39" index="6463" value="1"/>
  <variable name="x63_91" index="6615" value="1"/>
  <variable name="x64_96" index="6720" value="1"/>
  <variable name="x65_16" index="6740" value="1"/>
  <variable name="x66_70" index="6894" value="1"/>
  <variable name="x67_97" index="7021" value="1"/>
  <variable name="x68_74" index="7098" value="1"/>
  <variable name="x69_30" index="7154" value="1"/>
  <variable name="x70_66" index="7290" value="1"/>
  <variable name="x71_76" index="7400" value="1"/>
  <variable name="x72_61" index="7485" value="1"/>
  <variable name="x73_92" index="7616" value="1"/>
  <variable name="x74_68" index="7692" value="1"/>
  <variable name="x75_13" index="7737" value="1"/>
  <variable name="x76_71" index="7895" value="1"/>
  <variable name="x77_11" index="7935" value="1"/>
  <variable name="x78_47" index="8071" value="1"/>
  <variable name="x79_86" index="8210" value="1"/>
  <variable name="x80_43" index="8267" value="1"/>
  <variable name="x81_17" index="8341" value="1"/>
  <variable name="x82_19" index="8443" value="1"/>
  <variable name="x83_20" index="8544" value="1"/>
  <variable name="x84_28" index="8652" value="1"/>
  <variable name="x85_4" index="8728" value="1"/>
  <variable name="x86_79" index="8903" value="1"/>
  <variable name="x87_42" index="8966" value="1"/>
  <variable name="x88_29" index="9053" value="1"/>
  <variable name="x89_44" index="9168" value="1"/>
  <variable name="x90_54" index="9278" value="1"/>
  <variable name="x91_63" index="9387" value="1"/>
  <variable name="x92_73" index="9497" value="1"/>
  <variable name="x93_6" index="9530" value="1"/>
  <variable name="x94_41" index="9665" value="1"/>
  <variable name="x95_56" index="9780" value="1"/>
  <variable name="x96_64" index="9888" value="1"/>
  <variable name="x97_67" index="9991" value="1"/>
  <variable name="x98_34" index="10058" value="1"/>
  <variable name="x99_35" index="10159" value="1"/>
 </variables>
</CPLEXSolution>
